# Solution for model r10_t18_m6_2 Batch Number: 1
# Finished Task: 18 / 18
# Makespan: 584.0, Total Distance: 246.0, Total Time: 4.9963
# R O S F Batch
0 0 17 0.0 0.0 -1
1 1 -1 0.0 0.0 -1
2 2 13 0.0 0.0 -1
3 3 -1 0.0 0.0 -1
4 4 14 0.0 0.0 -1
5 5 25 0.0 0.0 -1
6 6 15 0.0 0.0 -1
7 7 26 0.0 0.0 -1
8 8 21 0.0 0.0 -1
9 9 19 0.0 0.0 -1
10 6 18 301.0 325.0 0
11 0 16 386.0 420.0 0
12 0 11 337.0 375.0 0
13 2 -1 223.0 245.0 0
14 4 24 445.0 484.0 0
15 6 10 111.0 146.0 0
16 0 -1 557.0 584.0 0
17 0 12 293.0 322.0 0
18 6 23 344.0 372.0 0
19 9 27 254.0 284.0 0
20 6 -1 501.0 523.0 0
21 8 -1 509.0 533.0 0
22 4 -1 556.0 584.0 0
23 6 20 451.0 489.0 0
24 4 22 493.0 516.0 0
25 5 -1 555.0 584.0 0
26 7 -1 454.0 482.0 0
27 9 -1 524.0 557.0 0
